solution status: time limit reached
objective value:                          34201.83617
y#17                                                1 	(obj:5700)
y#30                                                1 	(obj:5700)
y#36                                                1 	(obj:5700)
y#40                                                1 	(obj:5700)
y#41                                                1 	(obj:5700)
y#43                                                1 	(obj:5700)
x#1#43                                              1 	(obj:0.02431)
x#2#41                                              1 	(obj:0.0034)
x#3#40                                              1 	(obj:0.03009)
x#4#30                                              1 	(obj:0.01768)
x#5#41                                              1 	(obj:0.02958)
x#6#36                                              1 	(obj:0.03128)
x#7#43                                              1 	(obj:0.03247)
x#8#36                                              1 	(obj:0.05049)
x#9#30                                              1 	(obj:0.02839)
x#10#40                                             1 	(obj:0.05542)
x#11#17                                             1 	(obj:0.01326)
x#12#17                                             1 	(obj:0.01785)
x#13#41                                             1 	(obj:0.03672)
x#14#36                                             1 	(obj:0.01088)
x#15#41                                             1 	(obj:0.02074)
x#16#43                                             1 	(obj:0.01564)
x#17#30                                             1 	(obj:0.03434)
x#18#41                                             1 	(obj:0.04063)
x#19#30                                             1 	(obj:0.06154)
x#20#30                                             1 	(obj:0.05678)
x#21#36                                             1 	(obj:0.0612)
x#22#17                                             1 	(obj:0.01598)
x#23#17                                             1 	(obj:0.03383)
x#24#43                                             1 	(obj:0.0034)
x#25#30                                             1 	(obj:0.02465)
x#26#40                                             1 	(obj:0.01904)
x#27#17                                             1 	(obj:0.01326)
x#28#41                                             1 	(obj:0.05015)
x#29#43                                             1 	(obj:0.01751)
x#30#36                                             1 	(obj:0.01326)
x#31#17                                             1 	(obj:0.04165)
x#32#17                                             1 	(obj:0.0323)
x#33#40                                             1 	(obj:0.01343)
x#34#17                                             1 	(obj:0.04131)
x#35#30                                             1 	(obj:0.03434)
x#36#43                                             1 	(obj:0.00901)
x#37#30                                             1 	(obj:0.02924)
x#38#36                                             1 	(obj:0.06409)
x#39#43                                             1 	(obj:0.0119)
x#40#41                                             1 	(obj:0.04216)
x#41#17                                             1 	(obj:0.00935)
x#42#43                                             1 	(obj:0.0221)
x#43#36                                             1 	(obj:0.05372)
x#44#40                                             1 	(obj:0.00289)
x#45#43                                             1 	(obj:0.03128)
x#46#43                                             1 	(obj:0.01751)
x#47#41                                             1 	(obj:0.04488)
x#48#36                                             1 	(obj:0.03145)
x#49#41                                             1 	(obj:0.02108)
x#50#36                                             1 	(obj:0.03944)
x#51#41                                             1 	(obj:0.07123)
x#52#30                                             1 	(obj:0.06188)
x#53#17                                             1 	(obj:0.02992)
x#54#30                                             1 	(obj:0.03774)
x#55#17                                             1 	(obj:0.00493)
x#56#43                                             1 	(obj:0.07327)
x#57#36                                             1 	(obj:0.03451)
x#58#30                                             1 	(obj:0.02737)
x#59#30                                             1 	(obj:0.03672)
x#60#36                                             1 	(obj:0.0017)
